p tw 136 150
1 2
2 49
3 14
3 44
4 41
5 6
6 7
7 8
8 9
9 10
10 11
11 12
12 13
13 15
14 25
15 16
15 21
16 17
17 18
17 26
18 19
19 20
19 30
20 35
21 22
22 23
23 24
24 41
25 36
26 27
27 28
28 29
29 41
30 31
31 32
32 33
33 34
34 41
35 37
36 43
36 44
37 38
38 39
39 40
40 41
41 42
43 41
44 45
45 46
46 47
47 41
48 50
49 60
50 51
51 52
52 53
52 92
53 54
54 55
54 73
55 56
56 57
56 64
57 58
58 59
59 61
60 71
61 62
62 63
63 41
64 65
65 66
66 67
67 68
68 69
69 70
70 72
71 82
72 41
73 74
74 75
75 76
75 81
76 77
77 78
78 79
79 80
80 88
81 83
82 93
83 84
84 85
85 86
86 87
87 88
88 89
89 90
90 91
91 41
92 94
93 104
94 95
95 96
95 134
96 97
97 98
97 116
98 99
99 100
99 108
100 101
101 102
102 103
103 105
104 115
105 106
106 107
107 41
108 109
109 110
110 111
111 112
112 113
113 114
114 41
115 126
115 48
116 117
117 118
118 119
118 124
119 120
120 121
121 122
122 123
123 130
124 125
125 127
126 3
127 128
128 129
129 130
130 131
131 132
132 133
133 41
134 135
135 136
136 4
136 5
